47 0
38 12
55 66
75 63
3 99
5 33
95 1
34 69
100 17
86 98
49 13
91 66
90 89
52 94
36 6
94 26
26 0
41 87
93 10
46 40
86 21
0 35
27 9
48 32
97 1
4 82
70 69
79 17
27 6
32 11
87 5
78 29
32 15
99 26
47 11
22 60
11 96
73 65
13 53
92 90
25 52
18 98
36 72
68 60
90 27
19 80
42 80
13 16
32 3
70 12
68 5
80 82
10 61
12 40
70 91
29 5
59 30
39 92
72 72
50 30
63 29
88 86
74 25
72 75
19 87
61 15
42 67
99 19
100 51
34 51
